3235
3380
297
1315
258
3314
2089
1603
1638
1746
3561
3488
3193
1542
4278
2577
1808
4344
3490
4319
3404
304
405
2952
3874
1048
3173
988
1952
3890
4314
4466
1777
2290
2981
1913
2693
522
3439
2662
4092
2289
3979
4477
3032
3491
3113
2524
578
1150
3376
4010
1502
1877
3302
2066
3466
2859
633
1313
1291
3630
3696
1420
3511
3939
4471
741
3821
2585
1658
1057
4137
3962
2873
3708
2657
2996
388
2479
2382
4103
2741
2359
3944
3582
1006
2175
4451
3321
3661
818
1927
775
2694
985
2041
2265
2445
3770
